solving instance uflp nlass orlib 93 exp
Set parameter TokenServer to value "licences.gerad.lan"
Set parameter MIPGap to value 1e-06
Set parameter FuncPieceError to value 1e-06
Set parameter Threads to value 1
Set parameter FuncPieces to value -2
Set parameter TimeLimit to value 3600
Gurobi Optimizer version 12.0.2 build v12.0.2rc0 (linux64 - "AlmaLinux 9.6 (Sage Margay)")

CPU model: Intel(R) Xeon(R) Gold 6258R CPU @ 2.70GHz, instruction set [SSE2|AVX|AVX2|AVX512]
Thread count: 56 physical cores, 56 logical processors, using up to 1 threads

Non-default parameters:
TimeLimit  3600
MIPGap  1e-06
Threads  1
FuncPieces  -2
FuncPieceError  1e-06

Optimize a model with 6300 rows, 8775 columns and 14998 nonzeros
Model fingerprint: 0xd0367b71
Model has 2500 function constraints treated as nonlinear
  1250 EXP, 1250 POW
Variable types: 7500 continuous, 1275 integer (1275 binary)
Coefficient statistics:
  Matrix range     [5e-01, 2e+06]
  Objective range  [1e+00, 2e+04]
  Bounds range     [1e+00, 1e+10]
  RHS range        [1e+00, 9e+05]
Warning: Model contains large bounds
         Consider reformulating model or setting NumericFocus parameter
         to avoid numerical issues.
Warning: 0 <= x < 1e-10 in domain of pow(x,a) with a=-1.000.
         Setting lower bound to 1e-10.
Presolve removed 2551 rows and 2502 columns
Presolve time: 0.05s
Presolved: 14999 rows, 6274 columns, 31148 nonzeros
Presolved model has 1250 bilinear constraint(s)
Presolved model has 1250 nonlinear constraint(s)

Solving non-convex MINLP

Variable types: 5001 continuous, 1273 integer (1273 binary)
Found heuristic solution: objective 2496170.2823

Root relaxation: objective 1.312077e+06, 6945 iterations, 0.08 seconds (0.07 work units)

    Nodes    |    Current Node    |     Objective Bounds      |     Work
 Expl Unexpl |  Obj  Depth IntInf | Incumbent    BestBd   Gap | It/Node Time

     0     0 1312077.47    0  298 2496170.28 1312077.47  47.4%     -    0s
     0     0 1312077.47    0  298 2496170.28 1312077.47  47.4%     -    0s
H    0     0                    1634340.8647 1312077.47  19.7%     -    0s
H    0     0                    1627452.6630 1312077.47  19.4%     -    0s
     0     0 1469448.28    0  326 1627452.66 1469448.28  9.71%     -    0s
     0     0 1554657.27    0  304 1627452.66 1554657.27  4.47%     -    0s
     0     0 1554657.27    0  304 1627452.66 1554657.27  4.47%     -    0s
     0     0 1555379.04    0  305 1627452.66 1555379.04  4.43%     -    0s
     0     0 1581498.31    0  295 1627452.66 1581498.31  2.82%     -    0s
     0     0 1583619.44    0  296 1627452.66 1583619.44  2.69%     -    0s
     0     0 1602619.02    0  306 1627452.66 1602619.02  1.53%     -    0s
     0     0 1603204.91    0  320 1627452.66 1603204.91  1.49%     -    1s
     0     0 1614209.57    0  234 1627452.66 1614209.57  0.81%     -    1s
     0     0 1614209.57    0  289 1627452.66 1614209.57  0.81%     -    1s
     0     0 1614209.57    0  294 1627452.66 1614209.57  0.81%     -    1s
     0     0 1614209.57    0  239 1627452.66 1614209.57  0.81%     -    1s
     0     0 1614209.57    0  220 1627452.66 1614209.57  0.81%     -    1s
     0     0 1615255.15    0  190 1627452.66 1615255.15  0.75%     -    1s
     0     0 1620242.33    0  281 1627452.66 1620242.33  0.44%     -    1s
     0     0 1620242.33    0  281 1627452.66 1620242.33  0.44%     -    1s
     0     0 1620530.59    0  162 1627452.66 1620530.59  0.43%     -    1s
     0     0 1620530.59    0  162 1627452.66 1620530.59  0.43%     -    1s
     0     0 1625373.98    0  194 1627452.66 1625373.98  0.13%     -    1s
     0     0 1625373.98    0  273 1627452.66 1625373.98  0.13%     -    1s
     0     0 1625373.98    0  279 1627452.66 1625373.98  0.13%     -    1s
     0     0 1625373.98    0  227 1627452.66 1625373.98  0.13%     -    1s
     0     0 1625373.98    0  149 1627452.66 1625373.98  0.13%     -    1s
     0     0 1625373.98    0  161 1627452.66 1625373.98  0.13%     -    2s
     0     0 1625373.98    0  161 1627452.66 1625373.98  0.13%     -    2s
     0     0 1625531.21    0  318 1627452.66 1625531.21  0.12%     -    2s
     0     0 1625531.21    0  268 1627452.66 1625531.21  0.12%     -    2s
     0     0 1625531.21    0  278 1627452.66 1625531.21  0.12%     -    2s
     0     0 1625531.21    0  220 1627452.66 1625531.21  0.12%     -    2s
     0     0 1625531.21    0  145 1627452.66 1625531.21  0.12%     -    2s
     0     0 1625531.21    0  156 1627452.66 1625531.21  0.12%     -    2s
     0     0 1625532.03    0  316 1627452.66 1625532.03  0.12%     -    2s
     0     0 1625551.09    0  316 1627452.66 1625551.09  0.12%     -    2s
     0     0 1626855.81    0  238 1627452.66 1626855.81  0.04%     -    2s
     0     0 1626855.81    0  238 1627452.66 1626855.81  0.04%     -    2s
     0     0 1626908.73    0  235 1627452.66 1626908.73  0.03%     -    2s
     0     0 1627257.41    0   16 1627452.66 1627257.41  0.01%     -    2s
     0     0 1627278.56    0   10 1627452.66 1627278.56  0.01%     -    2s
     0     0 1627278.56    0   10 1627452.66 1627278.56  0.01%     -    2s
     0     0 1627337.98    0   12 1627452.66 1627337.98  0.01%     -    2s
     0     0     cutoff    0      1627452.66 1627452.66  0.00%     -    2s

Cutting planes:
  Gomory: 15
  Lift-and-project: 1
  Implied bound: 1
  MIR: 3
  Flow cover: 243
  Zero half: 2
  RLT: 142
  Relax-and-lift: 87

Explored 1 nodes (21671 simplex iterations) in 2.58 seconds (1.09 work units)
Thread count was 1 (of 56 available processors)

Solution count 3: 1.62745e+06 1.63434e+06 2.49617e+06 

Optimal solution found (tolerance 1.00e-06)
Best objective 1.627452663043e+06, best bound 1.627452663043e+06, gap 0.0000%

User-callback calls 1184, time in user-callback 0.00 sec
reading orlib data file ../../../../../instances/uflp/orlib/cap93.txt
primal_bound = 1.6274526630429607e6, dual_bound = 1.627452663042888e6, gap = 4.463611290799782e-12, time = 2.6
